SECTION Graph 
Nodes 574
Edges 1165
E 1 501 7
E 1 502 2
E 2 3 14
E 2 503 2
E 3 4 1
E 3 504 2
E 4 505 2
E 5 6 1
E 6 7 14
E 7 8 1
E 8 302 8
E 8 311 31
E 9 10 1
E 9 493 7
E 9 494 2
E 9 502 21
E 10 11 14
E 10 495 2
E 10 503 21
E 11 12 1
E 11 498 2
E 11 504 21
E 12 499 2
E 12 505 21
E 13 14 1
E 13 481 7
E 13 483 2
E 13 494 21
E 14 15 14
E 14 485 2
E 14 495 21
E 15 16 1
E 15 489 2
E 15 498 21
E 16 491 2
E 16 499 21
E 17 18 1
E 17 473 7
E 17 474 2
E 17 483 21
E 18 19 14
E 18 475 2
E 18 485 21
E 19 20 1
E 19 478 2
E 19 489 21
E 20 479 2
E 20 491 21
E 21 22 1
E 21 465 7
E 21 466 2
E 21 474 21
E 22 23 14
E 22 467 2
E 22 475 21
E 23 24 1
E 23 470 2
E 23 478 21
E 24 471 2
E 24 479 21
E 25 26 1
E 25 457 7
E 25 458 2
E 25 466 21
E 26 27 14
E 26 459 2
E 26 467 21
E 27 28 1
E 27 462 2
E 27 470 21
E 28 463 2
E 28 471 21
E 29 30 1
E 29 449 7
E 29 458 21
E 30 31 14
E 30 459 21
E 31 32 1
E 31 462 21
E 32 463 21
E 33 34 1
E 33 68 7
E 33 496 21
E 34 35 14
E 34 497 21
E 35 36 1
E 35 500 21
E 36 501 21
E 37 38 1
E 37 72 7
E 37 486 21
E 37 496 2
E 38 39 14
E 38 487 21
E 38 497 2
E 39 40 1
E 39 492 21
E 39 500 2
E 40 493 21
E 40 501 2
E 40 502 7
E 41 42 1
E 41 76 7
E 41 476 21
E 41 486 2
E 42 43 14
E 42 477 21
E 42 487 2
E 43 44 1
E 43 480 21
E 43 492 2
E 44 481 21
E 44 493 2
E 44 494 7
E 45 46 1
E 45 80 7
E 45 468 21
E 45 476 2
E 46 47 14
E 46 469 21
E 46 477 2
E 47 48 1
E 47 472 21
E 47 480 2
E 48 473 21
E 48 481 2
E 48 483 7
E 49 50 1
E 49 84 7
E 49 460 21
E 49 468 2
E 50 51 14
E 50 461 21
E 50 469 2
E 51 52 1
E 51 464 21
E 51 472 2
E 52 465 21
E 52 473 2
E 52 474 7
E 53 54 1
E 53 88 7
E 53 451 21
E 53 460 2
E 54 55 14
E 54 453 21
E 54 461 2
E 55 56 1
E 55 455 21
E 55 464 2
E 56 457 21
E 56 465 2
E 56 466 7
E 57 58 1
E 57 92 7
E 57 439 21
E 57 451 2
E 58 59 14
E 58 441 21
E 58 453 2
E 59 60 1
E 59 447 21
E 59 455 2
E 60 449 21
E 60 457 2
E 60 458 7
E 61 62 1
E 61 96 7
E 61 439 2
E 62 63 14
E 62 441 2
E 63 64 1
E 63 447 2
E 64 449 2
E 65 66 1
E 65 69 23
E 65 490 7
E 66 67 14
E 66 70 23
E 67 68 1
E 67 71 23
E 68 72 23
E 69 70 1
E 69 73 23
E 69 100 7
E 70 71 14
E 70 74 23
E 71 72 1
E 71 75 23
E 72 76 23
E 73 74 1
E 73 77 23
E 73 104 7
E 74 75 14
E 74 78 23
E 75 76 1
E 75 79 23
E 76 80 23
E 77 78 1
E 77 81 23
E 77 108 7
E 78 79 14
E 78 82 23
E 79 80 1
E 79 83 23
E 80 84 23
E 81 82 1
E 81 112 7
E 81 450 21
E 82 83 14
E 82 452 21
E 83 84 1
E 83 454 21
E 84 456 21
E 85 86 1
E 85 89 23
E 85 116 7
E 85 450 2
E 86 87 14
E 86 90 23
E 86 452 2
E 87 88 1
E 87 91 23
E 87 454 2
E 88 92 23
E 88 456 2
E 89 90 1
E 89 120 7
E 89 425 21
E 90 91 14
E 90 427 21
E 91 92 1
E 91 431 21
E 92 433 21
E 93 94 1
E 93 124 7
E 93 425 2
E 94 95 14
E 94 427 2
E 95 96 1
E 95 431 2
E 96 433 2
E 97 98 1
E 97 101 23
E 97 148 7
E 97 482 23
E 98 99 14
E 98 102 23
E 98 484 23
E 99 100 1
E 99 103 23
E 99 488 23
E 100 104 23
E 100 490 23
E 101 102 1
E 101 105 23
E 101 152 7
E 102 103 14
E 102 106 23
E 103 104 1
E 103 107 23
E 104 108 23
E 105 106 1
E 105 109 23
E 105 156 7
E 106 107 14
E 106 110 23
E 107 108 1
E 107 111 23
E 108 112 23
E 109 110 1
E 109 160 7
E 109 438 21
E 110 111 14
E 110 440 21
E 111 112 1
E 111 446 21
E 112 448 21
E 113 114 1
E 113 117 23
E 113 164 7
E 113 438 2
E 114 115 14
E 114 118 23
E 114 440 2
E 115 116 1
E 115 119 23
E 115 446 2
E 116 120 23
E 116 448 2
E 117 118 1
E 117 168 7
E 117 415 21
E 118 119 14
E 118 416 21
E 119 120 1
E 119 421 21
E 120 422 21
E 121 122 1
E 121 172 7
E 121 415 2
E 122 123 14
E 122 416 2
E 123 124 1
E 123 421 2
E 124 422 2
E 125 126 1
E 125 129 67
E 125 348 108
E 126 127 14
E 126 130 67
E 127 128 1
E 127 131 67
E 128 132 67
E 129 130 1
E 129 133 23
E 130 131 14
E 130 134 23
E 131 132 1
E 131 135 23
E 132 136 23
E 133 134 1
E 133 137 21
E 134 135 14
E 134 138 21
E 135 136 1
E 135 139 21
E 136 140 21
E 137 138 1
E 138 139 14
E 139 140 1
E 141 142 1
E 141 145 23
E 141 178 7
E 142 143 14
E 142 146 23
E 143 144 1
E 143 147 23
E 144 148 23
E 144 482 7
E 145 146 1
E 145 149 23
E 145 182 7
E 146 147 14
E 146 150 23
E 147 148 1
E 147 151 23
E 148 152 23
E 149 150 1
E 149 153 23
E 149 186 7
E 150 151 14
E 150 154 23
E 151 152 1
E 151 155 23
E 152 156 23
E 153 154 1
E 153 157 23
E 153 445 7
E 154 155 14
E 154 158 23
E 155 156 1
E 155 159 23
E 156 160 23
E 157 158 1
E 157 434 2
E 158 159 14
E 158 435 2
E 159 160 1
E 159 442 2
E 160 443 2
E 161 162 1
E 161 165 23
E 161 420 7
E 161 434 21
E 162 163 14
E 162 166 23
E 162 426 2
E 163 164 1
E 163 167 23
E 163 430 2
E 164 168 23
E 164 432 2
E 165 166 1
E 165 411 4
E 166 167 14
E 166 412 4
E 167 168 1
E 167 417 4
E 168 418 4
E 169 170 1
E 169 402 7
E 169 403 4
E 169 405 2
E 170 404 4
E 170 406 2
E 170 408 8
E 171 172 1
E 171 408 6
E 171 409 2
E 172 410 2
E 173 174 18
E 173 348 82
E 173 364 8
E 174 374 8
E 174 407 190
E 175 176 1
E 175 179 23
E 176 177 14
E 176 180 23
E 177 178 1
E 177 181 23
E 178 182 23
E 179 180 1
E 179 183 23
E 180 181 14
E 180 184 23
E 181 182 1
E 181 185 23
E 182 186 23
E 183 184 1
E 183 436 23
E 184 185 14
E 184 437 23
E 185 186 1
E 185 444 23
E 186 445 23
E 187 188 1
E 187 398 22
E 187 399 19
E 187 413 27
E 188 189 14
E 188 400 19
E 188 414 27
E 189 190 1
E 189 401 19
E 189 419 27
E 190 402 19
E 190 411 7
E 190 420 27
E 191 192 1
E 191 393 35
E 191 399 4
E 192 193 14
E 192 394 35
E 192 400 4
E 193 194 1
E 193 395 35
E 193 401 4
E 194 396 35
E 194 402 4
E 194 403 7
E 195 196 1
E 195 351 82
E 196 197 14
E 196 352 82
E 197 198 1
E 197 359 82
E 198 348 16
E 198 360 82
E 199 200 1
E 199 397 48
E 200 201 14
E 200 398 48
E 201 202 1
E 202 423 7
E 203 204 1
E 203 368 76
E 203 384 9
E 204 205 14
E 205 206 1
E 205 379 48
E 206 380 48
E 206 393 53
E 206 397 88
E 207 208 1
E 207 366 7
E 207 369 2
E 207 381 46
E 208 209 14
E 208 370 2
E 208 382 46
E 209 210 1
E 209 375 2
E 209 383 46
E 210 377 2
E 210 379 22
E 210 384 46
E 211 212 1
E 211 346 82
E 211 369 23
E 212 213 14
E 212 347 82
E 212 370 23
E 213 214 1
E 213 375 23
E 214 376 22
E 214 377 23
E 215 216 1
E 215 355 2
E 216 217 14
E 216 356 2
E 217 218 1
E 217 365 2
E 218 366 2
E 218 369 7
E 219 220 1
E 219 343 191
E 219 349 20
E 219 357 2
E 220 221 14
E 220 350 20
E 220 358 2
E 221 222 1
E 221 353 20
E 221 367 2
E 222 354 20
E 222 368 2
E 222 381 53
E 223 224 1
E 223 298 7
E 223 300 130
E 224 225 14
E 224 301 130
E 225 226 1
E 225 295 25
E 225 304 130
E 226 296 25
E 226 305 130
E 227 228 1
E 227 238 24
E 228 229 14
E 229 230 1
E 229 290 17
E 230 292 17
E 231 232 1
E 231 278 30
E 231 287 2
E 231 293 25
E 232 233 14
E 232 288 2
E 232 294 25
E 233 234 1
E 233 289 2
E 233 297 25
E 234 291 2
E 234 295 22
E 234 298 25
E 235 236 1
E 235 287 23
E 236 237 14
E 236 288 23
E 237 238 1
E 237 289 23
E 238 290 22
E 238 291 23
E 239 240 1
E 239 331 7
E 239 340 20
E 240 241 14
E 240 341 20
E 241 242 1
E 241 342 20
E 242 343 20
E 242 349 191
E 243 244 1
E 243 334 1
E 244 245 14
E 244 335 1
E 245 246 1
E 245 338 1
E 246 339 1
E 247 248 1
E 247 313 22
E 247 314 1
E 247 324 24
E 248 249 14
E 248 315 1
E 248 326 24
E 249 250 1
E 249 253 71
E 249 328 24
E 250 254 71
E 250 330 24
E 251 252 1
E 251 255 32
E 251 299 22
E 251 314 70
E 252 253 14
E 252 256 32
E 252 315 70
E 253 254 1
E 253 257 32
E 254 258 32
E 255 256 1
E 255 281 153
E 256 257 14
E 256 282 153
E 257 258 1
E 257 285 153
E 258 286 153
E 258 306 58
E 259 260 1
E 259 275 2
E 260 261 14
E 260 276 2
E 261 262 1
E 261 277 2
E 262 278 2
E 262 287 30
E 263 264 1
E 263 317 22
E 264 265 14
E 264 319 22
E 265 266 1
E 265 321 22
E 266 323 22
E 266 334 7
E 267 268 1
E 268 269 14
E 268 299 191
E 269 270 1
E 270 279 7
E 271 272 1
E 271 302 24
E 272 273 14
E 272 303 24
E 273 274 1
E 273 308 24
E 274 309 24
E 274 316 7
E 275 276 1
E 275 279 19
E 276 277 14
E 276 280 19
E 277 278 1
E 277 283 19
E 278 284 19
E 279 280 1
E 279 281 6
E 280 282 6
E 280 283 14
E 281 282 1
E 282 285 14
E 283 284 1
E 283 285 6
E 284 286 6
E 285 286 1
E 286 293 30
E 287 288 1
E 288 289 14
E 289 291 1
E 290 292 1
E 290 295 25
E 292 296 25
E 293 294 1
E 294 297 14
E 295 296 1
E 297 298 1
E 299 311 70
E 300 301 1
E 300 306 18
E 301 304 14
E 301 307 18
E 302 303 1
E 303 308 14
E 304 305 1
E 304 310 18
E 305 312 18
E 305 344 214
E 306 307 1
E 307 310 14
E 308 309 1
E 309 313 8
E 310 312 1
E 311 313 1
E 311 314 22
E 312 346 214
E 313 318 24
E 314 315 1
E 316 317 1
E 316 318 1
E 317 319 1
E 318 319 1
E 318 320 14
E 319 321 14
E 320 321 1
E 320 322 1
E 321 323 1
E 322 323 1
E 322 324 7
E 323 325 7
E 324 325 1
E 324 326 1
E 325 327 1
E 325 332 20
E 326 327 1
E 326 328 14
E 327 329 14
E 327 333 20
E 328 329 1
E 328 330 1
E 329 331 1
E 329 336 20
E 330 331 1
E 331 337 20
E 332 333 1
E 332 334 2
E 333 335 2
E 333 336 14
E 334 335 1
E 335 338 14
E 336 337 1
E 336 338 2
E 337 339 2
E 337 340 7
E 338 339 1
E 339 357 214
E 340 341 1
E 341 342 14
E 342 343 1
E 344 345 1
E 344 346 18
E 345 347 18
E 345 351 91
E 346 347 1
E 347 361 91
E 349 350 1
E 350 353 14
E 351 352 1
E 351 361 18
E 352 359 14
E 352 362 18
E 353 354 1
E 354 355 56
E 355 356 1
E 356 365 14
E 357 358 1
E 358 367 14
E 359 360 1
E 359 371 18
E 360 363 7
E 360 372 18
E 361 362 1
E 361 385 82
E 362 371 14
E 362 386 82
E 363 364 1
E 363 373 18
E 364 374 18
E 365 366 1
E 367 368 1
E 369 370 1
E 370 375 14
E 371 372 1
E 371 387 82
E 372 373 7
E 372 388 82
E 373 374 1
E 373 403 190
E 374 404 190
E 375 377 1
E 376 378 1
E 376 379 25
E 378 380 25
E 378 385 53
E 379 380 1
E 380 389 53
E 381 382 1
E 382 383 14
E 383 384 1
E 385 386 1
E 385 389 25
E 386 387 14
E 386 390 25
E 387 388 1
E 387 391 25
E 388 392 25
E 389 390 1
E 389 393 48
E 390 391 14
E 390 394 48
E 391 392 1
E 391 395 48
E 392 396 48
E 393 394 1
E 394 395 14
E 395 396 1
E 397 398 1
E 399 400 1
E 400 401 14
E 401 402 1
E 403 404 1
E 404 407 8
E 405 406 1
E 405 411 17
E 406 409 14
E 406 412 17
E 407 408 4
E 409 410 1
E 409 417 17
E 410 415 7
E 410 418 17
E 411 412 1
E 412 417 14
E 413 414 1
E 413 423 21
E 414 419 14
E 414 424 21
E 415 416 1
E 416 421 14
E 417 418 1
E 419 420 1
E 419 428 21
E 420 429 21
E 421 422 1
E 422 425 7
E 423 424 1
E 423 436 25
E 424 428 14
E 424 437 25
E 425 427 1
E 426 430 14
E 426 435 19
E 427 431 14
E 428 429 1
E 428 444 25
E 429 434 7
E 429 445 25
E 430 432 1
E 430 442 19
E 431 433 1
E 432 438 7
E 432 443 19
E 433 439 7
E 434 435 1
E 435 442 14
E 436 437 1
E 437 444 14
E 438 440 1
E 439 441 1
E 440 446 14
E 441 447 14
E 442 443 1
E 444 445 1
E 446 448 1
E 447 449 1
E 448 450 7
E 450 452 1
E 451 453 1
E 452 454 14
E 453 455 14
E 454 456 1
E 455 457 1
E 456 460 7
E 458 459 1
E 459 462 14
E 460 461 1
E 461 464 14
E 462 463 1
E 464 465 1
E 466 467 1
E 467 470 14
E 468 469 1
E 469 472 14
E 470 471 1
E 472 473 1
E 474 475 1
E 475 478 14
E 476 477 1
E 477 480 14
E 478 479 1
E 480 481 1
E 482 484 1
E 483 485 1
E 484 488 14
E 485 489 14
E 486 487 1
E 487 492 14
E 488 490 1
E 489 491 1
E 492 493 1
E 494 495 1
E 495 498 14
E 496 497 1
E 497 500 14
E 498 499 1
E 500 501 1
E 502 503 1
E 503 504 14
E 504 505 1
E 1 506 100000
E 2 506 100000
E 3 506 100000
E 4 506 100000
E 5 507 100000
E 6 507 100000
E 7 507 100000
E 8 507 100000
E 9 508 100000
E 10 508 100000
E 11 508 100000
E 12 508 100000
E 13 509 100000
E 14 509 100000
E 15 509 100000
E 16 509 100000
E 17 510 100000
E 18 510 100000
E 19 510 100000
E 20 510 100000
E 21 511 100000
E 22 511 100000
E 23 511 100000
E 24 511 100000
E 25 512 100000
E 26 512 100000
E 27 512 100000
E 28 512 100000
E 29 513 100000
E 30 513 100000
E 31 513 100000
E 32 513 100000
E 33 514 100000
E 34 514 100000
E 35 514 100000
E 36 514 100000
E 37 515 100000
E 38 515 100000
E 39 515 100000
E 40 515 100000
E 41 516 100000
E 42 516 100000
E 43 516 100000
E 44 516 100000
E 45 517 100000
E 46 517 100000
E 47 517 100000
E 48 517 100000
E 49 518 100000
E 50 518 100000
E 51 518 100000
E 52 518 100000
E 53 519 100000
E 54 519 100000
E 55 519 100000
E 56 519 100000
E 57 520 100000
E 58 520 100000
E 59 520 100000
E 60 520 100000
E 61 521 100000
E 62 521 100000
E 63 521 100000
E 64 521 100000
E 65 522 100000
E 66 522 100000
E 67 522 100000
E 68 522 100000
E 69 523 100000
E 70 523 100000
E 71 523 100000
E 72 523 100000
E 73 524 100000
E 74 524 100000
E 75 524 100000
E 76 524 100000
E 77 525 100000
E 78 525 100000
E 79 525 100000
E 80 525 100000
E 81 526 100000
E 82 526 100000
E 83 526 100000
E 84 526 100000
E 85 527 100000
E 86 527 100000
E 87 527 100000
E 88 527 100000
E 89 528 100000
E 90 528 100000
E 91 528 100000
E 92 528 100000
E 93 529 100000
E 94 529 100000
E 95 529 100000
E 96 529 100000
E 97 530 100000
E 98 530 100000
E 99 530 100000
E 100 530 100000
E 101 531 100000
E 102 531 100000
E 103 531 100000
E 104 531 100000
E 105 532 100000
E 106 532 100000
E 107 532 100000
E 108 532 100000
E 109 533 100000
E 110 533 100000
E 111 533 100000
E 112 533 100000
E 113 534 100000
E 114 534 100000
E 115 534 100000
E 116 534 100000
E 117 535 100000
E 118 535 100000
E 119 535 100000
E 120 535 100000
E 121 536 100000
E 122 536 100000
E 123 536 100000
E 124 536 100000
E 125 537 100000
E 126 537 100000
E 127 537 100000
E 128 537 100000
E 129 538 100000
E 130 538 100000
E 131 538 100000
E 132 538 100000
E 133 539 100000
E 134 539 100000
E 135 539 100000
E 136 539 100000
E 137 540 100000
E 138 540 100000
E 139 540 100000
E 140 540 100000
E 141 541 100000
E 142 541 100000
E 143 541 100000
E 144 541 100000
E 145 542 100000
E 146 542 100000
E 147 542 100000
E 148 542 100000
E 149 543 100000
E 150 543 100000
E 151 543 100000
E 152 543 100000
E 153 544 100000
E 154 544 100000
E 155 544 100000
E 156 544 100000
E 157 545 100000
E 158 545 100000
E 159 545 100000
E 160 545 100000
E 161 546 100000
E 162 546 100000
E 163 546 100000
E 164 546 100000
E 165 547 100000
E 166 547 100000
E 167 547 100000
E 168 547 100000
E 169 548 100000
E 170 548 100000
E 171 548 100000
E 172 548 100000
E 173 549 100000
E 174 549 100000
E 175 550 100000
E 176 550 100000
E 177 550 100000
E 178 550 100000
E 179 551 100000
E 180 551 100000
E 181 551 100000
E 182 551 100000
E 183 552 100000
E 184 552 100000
E 185 552 100000
E 186 552 100000
E 187 553 100000
E 188 553 100000
E 189 553 100000
E 190 553 100000
E 191 554 100000
E 192 554 100000
E 193 554 100000
E 194 554 100000
E 195 555 100000
E 196 555 100000
E 197 555 100000
E 198 555 100000
E 199 556 100000
E 200 556 100000
E 201 556 100000
E 202 556 100000
E 203 557 100000
E 204 557 100000
E 205 557 100000
E 206 557 100000
E 207 558 100000
E 208 558 100000
E 209 558 100000
E 210 558 100000
E 211 559 100000
E 212 559 100000
E 213 559 100000
E 214 559 100000
E 215 560 100000
E 216 560 100000
E 217 560 100000
E 218 560 100000
E 219 561 100000
E 220 561 100000
E 221 561 100000
E 222 561 100000
E 223 562 100000
E 224 562 100000
E 225 562 100000
E 226 562 100000
E 227 563 100000
E 228 563 100000
E 229 563 100000
E 230 563 100000
E 231 564 100000
E 232 564 100000
E 233 564 100000
E 234 564 100000
E 235 565 100000
E 236 565 100000
E 237 565 100000
E 238 565 100000
E 239 566 100000
E 240 566 100000
E 241 566 100000
E 242 566 100000
E 243 567 100000
E 244 567 100000
E 245 567 100000
E 246 567 100000
E 247 568 100000
E 248 568 100000
E 249 568 100000
E 250 568 100000
E 251 569 100000
E 252 569 100000
E 253 569 100000
E 254 569 100000
E 255 570 100000
E 256 570 100000
E 257 570 100000
E 258 570 100000
E 259 571 100000
E 260 571 100000
E 261 571 100000
E 262 571 100000
E 263 572 100000
E 264 572 100000
E 265 572 100000
E 266 572 100000
E 267 573 100000
E 268 573 100000
E 269 573 100000
E 270 573 100000
E 271 574 100000
E 272 574 100000
E 273 574 100000
E 274 574 100000
END 

SECTION Terminals 
Terminals 70
TP 506 541
TP 507 542
TP 508 543
TP 509 544
TP 510 545
TP 511 546
TP 512 547
TP 513 548
TP 514 549
TP 515 550
TP 516 551
TP 517 552
TP 518 553
TP 519 554
TP 520 555
TP 521 556
TP 522 557
TP 523 558
TP 524 559
TP 525 560
TP 526 561
TP 527 562
TP 528 563
TP 529 564
TP 530 565
TP 531 566
TP 532 567
TP 533 568
TP 534 569
TP 535 570
TP 536 571
TP 537 572
TP 538 573
TP 539 574
TP 540 452
END 
